id: 1071
name: gmut-75-50
group: miplib2010
method: 1

Gurobi 7.0.2 (linux64, Matlab) logging started Thu Apr 19 16:18:56 2018


Gurobi 7.0.2 (linux64) logging started Thu Apr 19 16:18:56 2018

Optimize a model with 2565 rows, 68865 columns and 571475 nonzeros
Coefficient statistics:
  Matrix range     [9e-01, 8e+03]
  Objective range  [3e+03, 4e+05]
  Bounds range     [1e+00, 1e+00]
  RHS range        [1e+00, 1e+00]
Presolve removed 66 rows and 32950 columns
Presolve time: 0.11s
Presolved: 2499 rows, 35915 columns, 569806 nonzeros

Iteration    Objective       Primal Inf.    Dual Inf.      Time
       0   -4.1118297e+09   2.265133e+07   0.000000e+00      0s
Warning: Markowitz tolerance tightened to 0.03125
    4626   -1.4182313e+07   0.000000e+00   0.000000e+00      1s

Solved in 4626 iterations and 0.93 seconds
Optimal objective -1.418231266e+07
status: OPTIMAL
